
%FILE DATA:	Soccer Computational Problem for MiniZinc Models	%
%AUTHOR:	Jack Wall	%
%CONTACT:  	116397063@umail.ucc.ie			%
%LAST UPDATE:	03/03/2020, 12:08:21						%
%DESCRIPTION: 	35 games played with 7 games left				%


n=7; %number of teams

%Games to play
games=[|4,2|6,1|2,6|4,5|6,2|1,2|3,7|];

%Initial points
iPoints=[20,15,9,16,8,11,16];

%POSITION CONSTRAINTS
% [|teamID, operator, position|...]
% operators index:
%  1 for =  operator
%  2 for >  operator
%  3 for >= operator
%  4 for <  operator
%  5 for <= operator
positionConstraints=[|1,1,1|7,5,2|2,2,2|];